NAME : portgen-40-207
COMMENT : portgen N=40, seed=207
TYPE : TSP
DIMENSION : 40
EDGE_WEIGHT_TYPE : EUC_2D
NODE_COORD_SECTION
1 3064 551
2 1736 379
3 1414 1704
4 2766 866
5 3070 1032
6 807 2618
7 1067 1351
8 1699 3064
9 2244 2220
10 2830 1184
11 309 496
12 1148 2336
13 896 2688
14 2338 2165
15 1860 3126
16 2865 1162
17 3155 279
18 2038 3089
19 1454 2816
20 1000 2480
21 1395 355
22 2974 2083
23 3059 2924
24 2094 101
25 1139 1801
26 1735 2760
27 279 795
28 1157 1901
29 559 1456
30 1504 1488
31 250 3113
32 3029 589
33 2800 451
34 2807 2146
35 1454 1938
36 969 2143
37 1080 1029
38 2611 712
39 216 352
40 1178 2157
